objective value:                                11694
t_x_1                                               1 	(obj:45)
t_x_2                                               1 	(obj:24)
t_x_6                                               1 	(obj:62)
t_x_8                                               1 	(obj:40)
t_x_12                                              1 	(obj:23)
t_x_13                                              1 	(obj:43)
t_x_19                                              1 	(obj:30)
t_x_20                                              1 	(obj:5)
t_x_23                                              1 	(obj:26)
t_x_24                                              1 	(obj:16)
t_x_25                                              1 	(obj:9)
t_x_29                                              1 	(obj:12)
t_x_33                                              1 	(obj:19)
t_x_43                                              1 	(obj:40)
t_x_46                                              1 	(obj:8)
t_x_47                                              1 	(obj:9)
t_x_50                                              1 	(obj:22)
t_x_51                                              1 	(obj:20)
t_x_53                                              1 	(obj:60)
t_x_58                                              1 	(obj:35)
t_x_59                                              1 	(obj:20)
t_x_61                                              1 	(obj:6)
t_x_62                                              1 	(obj:42)
t_x_66                                              1 	(obj:31)
t_x_69                                              1 	(obj:2)
t_x_70                                              1 	(obj:61)
t_x_79                                              1 	(obj:20)
t_x_89                                              1 	(obj:5)
t_x_91                                              1 	(obj:5)
t_x_93                                              1 	(obj:21)
t_x_95                                              1 	(obj:13)
t_x_102                                             1 	(obj:19)
t_x_104                                             1 	(obj:6)
t_x_110                                             1 	(obj:12)
t_x_111                                             1 	(obj:23)
t_x_113                                             1 	(obj:48)
t_x_114                                             1 	(obj:7)
t_x_115                                             1 	(obj:11)
t_x_120                                             1 	(obj:10)
t_x_121                                             1 	(obj:11)
t_x_123                                             1 	(obj:7)
t_x_125                                             1 	(obj:1)
t_x_128                                             1 	(obj:3)
t_x_134                                             1 	(obj:16)
t_x_140                                             1 	(obj:25)
t_x_143                                             1 	(obj:10)
t_x_144                                             1 	(obj:48)
t_x_147                                             1 	(obj:16)
t_x_151                                             1 	(obj:26)
t_x_165                                             1 	(obj:4)
t_x_167                                             1 	(obj:16)
t_x_170                                             1 	(obj:1)
t_x_171                                             1 	(obj:11)
t_x_177                                             1 	(obj:27)
t_x_178                                             1 	(obj:5)
t_x_180                                             1 	(obj:0)
t_x_183                                             1 	(obj:10)
t_x_184                                             1 	(obj:7)
t_x_190                                             1 	(obj:10)
t_x_191                                             1 	(obj:41)
t_x_196                                             1 	(obj:9)
t_x_208                                             1 	(obj:25)
t_x_213                                             1 	(obj:8)
t_x_216                                             1 	(obj:0)
t_x_217                                             1 	(obj:5)
t_x_223                                             1 	(obj:6)
t_x_227                                             1 	(obj:9)
t_x_233                                             1 	(obj:9)
t_x_234                                             1 	(obj:23)
t_x_235                                             1 	(obj:30)
t_x_243                                             1 	(obj:1)
t_x_246                                             1 	(obj:17)
t_x_248                                             1 	(obj:39)
t_x_251                                             1 	(obj:21)
t_x_252                                             1 	(obj:12)
t_x_255                                             1 	(obj:14)
t_x_257                                             1 	(obj:19)
t_x_259                                             1 	(obj:16)
t_x_260                                             1 	(obj:15)
t_x_261                                             1 	(obj:50)
t_x_262                                             1 	(obj:12)
t_x_264                                             1 	(obj:14)
t_x_278                                             1 	(obj:45)
t_x_283                                             1 	(obj:4)
t_x_284                                             1 	(obj:11)
t_x_287                                             1 	(obj:11)
t_x_289                                             1 	(obj:11)
t_x_293                                             1 	(obj:20)
t_x_294                                             1 	(obj:46)
t_x_298                                             1 	(obj:21)
t_x_299                                             1 	(obj:9)
t_x_305                                             1 	(obj:12)
t_x_306                                             1 	(obj:29)
t_x_308                                             1 	(obj:14)
t_x_314                                             1 	(obj:52)
t_x_319                                             1 	(obj:0)
t_x_327                                             1 	(obj:35)
t_x_329                                             1 	(obj:34)
t_x_330                                             1 	(obj:7)
t_x_332                                             1 	(obj:55)
t_x_335                                             1 	(obj:27)
t_x_341                                             1 	(obj:3)
t_x_342                                             1 	(obj:20)
t_x_351                                             1 	(obj:41)
t_x_355                                             1 	(obj:22)
t_x_364                                             1 	(obj:27)
t_x_365                                             1 	(obj:10)
t_x_372                                             1 	(obj:47)
t_x_373                                             1 	(obj:19)
t_x_375                                             1 	(obj:57)
t_x_377                                             1 	(obj:3)
t_x_380                                             1 	(obj:4)
t_x_382                                             1 	(obj:30)
t_x_384                                             1 	(obj:21)
t_x_386                                             1 	(obj:7)
t_x_387                                             1 	(obj:5)
t_x_400                                             1 	(obj:25)
t_x_402                                             1 	(obj:29)
t_x_403                                             1 	(obj:24)
t_x_411                                             1 	(obj:20)
t_x_414                                             1 	(obj:8)
t_x_432                                             1 	(obj:8)
t_x_434                                             1 	(obj:18)
t_x_439                                             1 	(obj:9)
t_x_440                                             1 	(obj:3)
t_x_443                                             1 	(obj:73)
t_x_444                                             1 	(obj:15)
t_x_447                                             1 	(obj:16)
t_x_450                                             1 	(obj:2)
t_x_451                                             1 	(obj:37)
t_x_452                                             1 	(obj:33)
t_x_455                                             1 	(obj:3)
t_x_459                                             1 	(obj:20)
t_x_462                                             1 	(obj:3)
t_x_465                                             1 	(obj:4)
t_x_466                                             1 	(obj:13)
t_x_469                                             1 	(obj:28)
t_x_470                                             1 	(obj:18)
t_x_471                                             1 	(obj:10)
t_x_476                                             1 	(obj:11)
t_x_477                                             1 	(obj:0)
t_x_485                                             1 	(obj:57)
t_x_488                                             1 	(obj:52)
t_x_490                                             1 	(obj:26)
t_x_493                                             1 	(obj:4)
t_x_494                                             1 	(obj:39)
t_x_501                                             1 	(obj:13)
t_x_510                                             1 	(obj:21)
t_x_513                                             1 	(obj:44)
t_x_515                                             1 	(obj:34)
t_x_521                                             1 	(obj:24)
t_x_531                                             1 	(obj:23)
t_x_533                                             1 	(obj:26)
t_x_534                                             1 	(obj:4)
t_x_539                                             1 	(obj:30)
t_x_540                                             1 	(obj:3)
t_x_543                                             1 	(obj:24)
t_x_544                                             1 	(obj:34)
t_x_547                                             1 	(obj:29)
t_x_548                                             1 	(obj:29)
t_x_550                                             1 	(obj:51)
t_x_554                                             1 	(obj:17)
t_x_557                                             1 	(obj:12)
t_x_559                                             1 	(obj:7)
t_x_560                                             1 	(obj:18)
t_x_564                                             1 	(obj:1)
t_x_568                                             1 	(obj:4)
t_x_577                                             1 	(obj:55)
t_x_579                                             1 	(obj:13)
t_x_582                                             1 	(obj:13)
t_x_583                                             1 	(obj:1)
t_x_589                                             1 	(obj:4)
t_x_590                                             1 	(obj:10)
t_x_591                                             1 	(obj:1)
t_x_599                                             1 	(obj:7)
t_x_608                                             1 	(obj:43)
t_x_613                                             1 	(obj:35)
t_x_615                                             1 	(obj:21)
t_x_618                                             1 	(obj:4)
t_x_620                                             1 	(obj:34)
t_x_621                                             1 	(obj:5)
t_x_629                                             1 	(obj:46)
t_x_630                                             1 	(obj:4)
t_x_631                                             1 	(obj:4)
t_x_635                                             1 	(obj:13)
t_x_636                                             1 	(obj:68)
t_x_639                                             1 	(obj:55)
t_x_641                                             1 	(obj:21)
t_x_648                                             1 	(obj:12)
t_x_652                                             1 	(obj:3)
t_x_654                                             1 	(obj:14)
t_x_658                                             1 	(obj:5)
t_x_663                                             1 	(obj:6)
t_x_667                                             1 	(obj:14)
t_x_677                                             1 	(obj:37)
t_x_678                                             1 	(obj:14)
t_x_681                                             1 	(obj:24)
t_x_690                                             1 	(obj:1)
t_x_706                                             1 	(obj:41)
t_x_707                                             1 	(obj:28)
t_x_711                                             1 	(obj:22)
t_x_714                                             1 	(obj:12)
t_x_715                                             1 	(obj:6)
t_x_719                                             1 	(obj:9)
t_x_721                                             1 	(obj:0)
t_x_723                                             1 	(obj:9)
t_x_727                                             1 	(obj:1)
t_x_728                                             1 	(obj:26)
t_x_729                                             1 	(obj:17)
t_x_730                                             1 	(obj:21)
t_x_741                                             1 	(obj:7)
t_x_743                                             1 	(obj:11)
t_x_744                                             1 	(obj:17)
t_x_752                                             1 	(obj:50)
t_x_753                                             1 	(obj:32)
t_x_757                                             1 	(obj:5)
t_x_759                                             1 	(obj:44)
t_x_761                                             1 	(obj:5)
t_x_767                                             1 	(obj:33)
t_x_769                                             1 	(obj:0)
t_x_774                                             1 	(obj:17)
t_x_775                                             1 	(obj:8)
t_x_777                                             1 	(obj:8)
t_x_782                                             1 	(obj:36)
t_x_785                                             1 	(obj:3)
t_x_790                                             1 	(obj:41)
t_x_791                                             1 	(obj:18)
t_x_792                                             1 	(obj:3)
t_x_793                                             1 	(obj:20)
t_x_801                                             1 	(obj:28)
t_x_806                                             1 	(obj:10)
t_x_810                                             1 	(obj:15)
t_x_812                                             1 	(obj:31)
t_x_819                                             1 	(obj:75)
t_x_823                                             1 	(obj:14)
t_x_824                                             1 	(obj:10)
t_x_836                                             1 	(obj:2)
t_x_838                                             1 	(obj:28)
t_x_843                                             1 	(obj:11)
t_x_844                                             1 	(obj:0)
t_x_845                                             1 	(obj:37)
t_x_856                                             1 	(obj:75)
t_x_858                                             1 	(obj:25)
t_x_860                                             1 	(obj:35)
t_x_864                                             1 	(obj:16)
t_x_865                                             1 	(obj:20)
t_x_866                                             1 	(obj:29)
t_x_869                                             1 	(obj:21)
t_x_870                                             1 	(obj:1)
t_x_874                                             1 	(obj:37)
t_x_875                                             1 	(obj:7)
t_x_877                                             1 	(obj:58)
t_x_889                                             1 	(obj:0)
t_x_890                                             1 	(obj:20)
t_x_896                                             1 	(obj:20)
t_x_898                                             1 	(obj:6)
t_x_902                                             1 	(obj:13)
t_x_911                                             1 	(obj:1)
t_x_913                                             1 	(obj:56)
t_x_918                                             1 	(obj:32)
t_x_920                                             1 	(obj:23)
t_x_928                                             1 	(obj:11)
t_x_931                                             1 	(obj:2)
t_x_934                                             1 	(obj:0)
t_x_936                                             1 	(obj:43)
t_x_937                                             1 	(obj:43)
t_x_941                                             1 	(obj:0)
t_x_955                                             1 	(obj:21)
t_x_956                                             1 	(obj:32)
t_x_958                                             1 	(obj:33)
t_x_959                                             1 	(obj:17)
t_x_960                                             1 	(obj:13)
t_x_963                                             1 	(obj:7)
t_x_964                                             1 	(obj:43)
t_x_965                                             1 	(obj:0)
t_x_980                                             1 	(obj:3)
t_x_982                                             1 	(obj:82)
t_x_984                                             1 	(obj:1)
t_x_985                                             1 	(obj:1)
t_x_986                                             1 	(obj:24)
t_x_990                                             1 	(obj:9)
t_x_991                                             1 	(obj:5)
t_x_1000                                            1 	(obj:10)
t_x_1001                                            1 	(obj:39)
t_x_1002                                            1 	(obj:21)
t_x_1014                                            1 	(obj:26)
t_x_1016                                            1 	(obj:35)
t_x_1021                                            1 	(obj:27)
t_x_1025                                            1 	(obj:25)
t_x_1032                                            1 	(obj:9)
t_x_1039                                            1 	(obj:0)
t_x_1040                                            1 	(obj:20)
t_x_1042                                            1 	(obj:3)
t_x_1043                                            1 	(obj:8)
t_x_1044                                            1 	(obj:10)
t_x_1046                                            1 	(obj:25)
t_x_1047                                            1 	(obj:15)
t_x_1049                                            1 	(obj:10)
t_x_1064                                            1 	(obj:38)
t_x_1067                                            1 	(obj:29)
t_x_1069                                            1 	(obj:13)
t_x_1074                                            1 	(obj:19)
t_x_1083                                            1 	(obj:8)
t_x_1085                                            1 	(obj:6)
t_x_1087                                            1 	(obj:5)
t_x_1088                                            1 	(obj:9)
t_x_1091                                            1 	(obj:13)
t_x_1092                                            1 	(obj:9)
t_x_1099                                            1 	(obj:11)
t_x_1102                                            1 	(obj:30)
t_x_1105                                            1 	(obj:13)
t_x_1108                                            1 	(obj:41)
t_x_1110                                            1 	(obj:12)
t_x_1112                                            1 	(obj:19)
t_x_1113                                            1 	(obj:4)
t_x_1114                                            1 	(obj:19)
t_x_1115                                            1 	(obj:48)
t_x_1116                                            1 	(obj:10)
t_x_1119                                            1 	(obj:22)
t_x_1123                                            1 	(obj:0)
t_x_1124                                            1 	(obj:4)
t_x_1125                                            1 	(obj:3)
t_x_1128                                            1 	(obj:22)
t_x_1129                                            1 	(obj:11)
t_x_1131                                            1 	(obj:23)
t_x_1132                                            1 	(obj:1)
t_x_1135                                            1 	(obj:32)
t_x_1136                                            1 	(obj:20)
t_x_1137                                            1 	(obj:38)
t_x_1140                                            1 	(obj:24)
t_x_1144                                            1 	(obj:28)
t_x_1145                                            1 	(obj:36)
t_x_1147                                            1 	(obj:15)
t_x_1150                                            1 	(obj:38)
t_x_1154                                            1 	(obj:11)
t_x_1155                                            1 	(obj:8)
t_x_1161                                            1 	(obj:0)
t_x_1162                                            1 	(obj:10)
t_x_1165                                            1 	(obj:8)
t_x_1168                                            1 	(obj:19)
t_x_1169                                            1 	(obj:25)
t_x_1172                                            1 	(obj:38)
t_x_1174                                            1 	(obj:35)
t_x_1176                                            1 	(obj:34)
t_x_1177                                            1 	(obj:28)
t_x_1178                                            1 	(obj:34)
t_x_1181                                            1 	(obj:43)
t_x_1182                                            1 	(obj:56)
t_x_1198                                            1 	(obj:19)
t_x_1205                                            1 	(obj:40)
t_x_1208                                            1 	(obj:1)
t_x_1211                                            1 	(obj:3)
t_x_1218                                            1 	(obj:24)
t_x_1220                                            1 	(obj:1)
t_x_1223                                            1 	(obj:9)
t_x_1224                                            1 	(obj:37)
t_x_1226                                            1 	(obj:33)
t_x_1230                                            1 	(obj:2)
t_x_1231                                            1 	(obj:28)
t_x_1237                                            1 	(obj:28)
t_x_1240                                            1 	(obj:44)
t_x_1242                                            1 	(obj:38)
t_x_1247                                            1 	(obj:27)
t_x_1249                                            1 	(obj:50)
t_x_1253                                            1 	(obj:5)
t_x_1257                                            1 	(obj:13)
t_x_1258                                            1 	(obj:3)
t_x_1265                                            1 	(obj:21)
t_x_1270                                            1 	(obj:2)
t_x_1271                                            1 	(obj:13)
t_x_1273                                            1 	(obj:12)
t_x_1275                                            1 	(obj:20)
t_x_1279                                            1 	(obj:4)
t_x_1281                                            1 	(obj:3)
t_x_1284                                            1 	(obj:12)
t_x_1286                                            1 	(obj:2)
t_x_1287                                            1 	(obj:11)
t_x_1289                                            1 	(obj:0)
t_x_1290                                            1 	(obj:17)
t_x_1292                                            1 	(obj:19)
t_x_1295                                            1 	(obj:46)
t_x_1296                                            1 	(obj:16)
t_x_1301                                            1 	(obj:16)
t_x_1306                                            1 	(obj:44)
t_x_1307                                            1 	(obj:10)
t_x_1310                                            1 	(obj:35)
t_x_1311                                            1 	(obj:25)
t_x_1312                                            1 	(obj:24)
t_x_1314                                            1 	(obj:24)
t_x_1316                                            1 	(obj:37)
t_x_1318                                            1 	(obj:38)
t_x_1321                                            1 	(obj:15)
t_x_1324                                            1 	(obj:9)
t_x_1325                                            1 	(obj:6)
t_x_1327                                            1 	(obj:16)
t_x_1332                                            1 	(obj:35)
t_x_1333                                            1 	(obj:23)
t_x_1336                                            1 	(obj:33)
t_x_1350                                            1 	(obj:14)
t_x_1351                                            1 	(obj:53)
t_x_1354                                            1 	(obj:65)
t_x_1362                                            1 	(obj:11)
t_x_1363                                            1 	(obj:8)
t_x_1366                                            1 	(obj:14)
t_x_1370                                            1 	(obj:19)
t_x_1371                                            1 	(obj:19)
t_x_1374                                            1 	(obj:5)
t_x_1375                                            1 	(obj:20)
t_x_1378                                            1 	(obj:26)
t_x_1380                                            1 	(obj:38)
t_x_1381                                            1 	(obj:5)
t_x_1385                                            1 	(obj:21)
t_x_1386                                            1 	(obj:9)
t_x_1395                                            1 	(obj:36)
t_x_1399                                            1 	(obj:21)
t_x_1404                                            1 	(obj:0)
t_x_1407                                            1 	(obj:40)
t_x_1414                                            1 	(obj:5)
t_x_1425                                            1 	(obj:43)
t_x_1426                                            1 	(obj:4)
t_x_1432                                            1 	(obj:10)
t_x_1435                                            1 	(obj:1)
t_x_1440                                            1 	(obj:19)
t_x_1441                                            1 	(obj:4)
t_x_1445                                            1 	(obj:6)
t_x_1449                                            1 	(obj:4)
t_x_1450                                            1 	(obj:6)
t_x_1456                                            1 	(obj:12)
t_x_1458                                            1 	(obj:19)
t_x_1459                                            1 	(obj:19)
t_x_1463                                            1 	(obj:15)
t_x_1465                                            1 	(obj:4)
t_x_1468                                            1 	(obj:6)
t_x_1469                                            1 	(obj:47)
t_x_1472                                            1 	(obj:11)
t_x_1478                                            1 	(obj:14)
t_x_1479                                            1 	(obj:14)
t_x_1482                                            1 	(obj:32)
t_x_1483                                            1 	(obj:32)
t_x_1487                                            1 	(obj:31)
t_x_1491                                            1 	(obj:10)
t_x_1494                                            1 	(obj:13)
t_x_1496                                            1 	(obj:2)
t_x_1502                                            1 	(obj:3)
t_x_1503                                            1 	(obj:35)
t_x_1506                                            1 	(obj:4)
t_x_1507                                            1 	(obj:1)
t_x_1508                                            1 	(obj:31)
t_x_1509                                            1 	(obj:16)
t_x_1511                                            1 	(obj:7)
t_x_1515                                            1 	(obj:39)
t_x_1517                                            1 	(obj:16)
t_x_1523                                            1 	(obj:8)
t_x_1524                                            1 	(obj:4)
t_x_1525                                            1 	(obj:5)
t_x_1528                                            1 	(obj:11)
t_x_1529                                            1 	(obj:19)
t_x_1530                                            1 	(obj:15)
t_x_1531                                            1 	(obj:21)
t_x_1533                                            1 	(obj:17)
t_x_1538                                            1 	(obj:5)
t_x_1544                                            1 	(obj:31)
t_x_1550                                            1 	(obj:6)
t_x_1554                                            1 	(obj:7)
t_x_1560                                            1 	(obj:61)
t_x_1561                                            1 	(obj:24)
t_x_1562                                            1 	(obj:8)
t_x_1567                                            1 	(obj:20)
t_x_1572                                            1 	(obj:24)
t_x_1580                                            1 	(obj:6)
t_x_1585                                            1 	(obj:13)
t_x_1589                                            1 	(obj:16)
t_x_1593                                            1 	(obj:49)
t_x_1594                                            1 	(obj:8)
t_x_1595                                            1 	(obj:17)
t_x_1599                                            1 	(obj:20)
t_x_1605                                            1 	(obj:5)
t_x_1608                                            1 	(obj:31)
t_x_1610                                            1 	(obj:18)
t_x_1615                                            1 	(obj:6)
t_x_1616                                            1 	(obj:18)
t_x_1618                                            1 	(obj:5)
t_x_1622                                            1 	(obj:9)
t_x_1625                                            1 	(obj:18)
t_x_1636                                            1 	(obj:6)
t_x_1638                                            1 	(obj:3)
t_x_1649                                            1 	(obj:23)
t_x_1650                                            1 	(obj:52)
t_x_1651                                            1 	(obj:18)
t_x_1654                                            1 	(obj:1)
t_x_1657                                            1 	(obj:2)
t_x_1660                                            1 	(obj:10)
t_x_1662                                            1 	(obj:13)
t_x_1664                                            1 	(obj:2)
t_x_1669                                            1 	(obj:6)
t_x_1673                                            1 	(obj:46)
t_x_1674                                            1 	(obj:18)
t_x_1675                                            1 	(obj:11)
t_x_1676                                            1 	(obj:33)
t_x_1680                                            1 	(obj:37)
t_x_1685                                            1 	(obj:0)
t_x_1686                                            1 	(obj:11)
t_x_1687                                            1 	(obj:6)
t_x_1688                                            1 	(obj:29)
t_x_1693                                            1 	(obj:3)
t_x_1694                                            1 	(obj:20)
t_x_1695                                            1 	(obj:52)
t_x_1698                                            1 	(obj:9)
t_x_1702                                            1 	(obj:44)
t_x_1703                                            1 	(obj:21)
t_x_1706                                            1 	(obj:2)
t_x_1710                                            1 	(obj:19)
t_x_1712                                            1 	(obj:3)
t_x_1713                                            1 	(obj:18)
t_x_1719                                            1 	(obj:36)
t_x_1720                                            1 	(obj:0)
t_x_1721                                            1 	(obj:9)
t_x_1726                                            1 	(obj:0)
t_x_1730                                            1 	(obj:18)
t_x_1731                                            1 	(obj:28)
t_x_1732                                            1 	(obj:22)
t_x_1733                                            1 	(obj:48)
t_x_1739                                            1 	(obj:25)
t_x_1742                                            1 	(obj:18)
t_x_1745                                            1 	(obj:23)
t_x_1750                                            1 	(obj:11)
t_x_1765                                            1 	(obj:2)
t_x_1766                                            1 	(obj:44)
t_x_1767                                            1 	(obj:9)
t_x_1768                                            1 	(obj:6)
t_x_1772                                            1 	(obj:61)
t_x_1774                                            1 	(obj:27)
t_x_1777                                            1 	(obj:33)
t_x_1778                                            1 	(obj:11)
t_x_1779                                            1 	(obj:7)
t_x_1783                                            1 	(obj:3)
t_x_1784                                            1 	(obj:30)
t_x_1786                                            1 	(obj:18)
t_x_1791                                            1 	(obj:34)
t_x_1794                                            1 	(obj:26)
t_x_1795                                            1 	(obj:16)
t_x_1797                                            1 	(obj:12)
t_x_1802                                            1 	(obj:10)
t_x_1811                                            1 	(obj:34)
t_x_1812                                            1 	(obj:14)
t_x_1818                                            1 	(obj:13)
t_x_1821                                            1 	(obj:15)
t_x_1826                                            1 	(obj:11)
t_x_1829                                            1 	(obj:37)
t_x_1835                                            1 	(obj:18)
t_x_1837                                            1 	(obj:39)
t_x_1841                                            1 	(obj:17)
t_x_1843                                            1 	(obj:16)
t_x_1847                                            1 	(obj:24)
t_x_1852                                            1 	(obj:7)
t_x_1856                                            1 	(obj:13)
t_x_1857                                            1 	(obj:7)
t_x_1858                                            1 	(obj:20)
t_x_1859                                            1 	(obj:36)
t_x_1860                                            1 	(obj:8)
t_x_1862                                            1 	(obj:59)
t_x_1863                                            1 	(obj:21)
t_x_1865                                            1 	(obj:21)
t_x_1866                                            1 	(obj:13)
t_x_1867                                            1 	(obj:9)
t_x_1869                                            1 	(obj:25)
t_x_1871                                            1 	(obj:5)
t_x_1872                                            1 	(obj:21)
t_x_1878                                            1 	(obj:4)
t_x_1881                                            1 	(obj:19)
t_x_1883                                            1 	(obj:4)
t_x_1887                                            1 	(obj:5)
t_x_1895                                            1 	(obj:8)
t_x_1904                                            1 	(obj:9)
t_x_1909                                            1 	(obj:9)
t_x_1910                                            1 	(obj:13)
t_x_1915                                            1 	(obj:33)
t_x_1918                                            1 	(obj:31)
t_x_1921                                            1 	(obj:18)
t_x_1922                                            1 	(obj:0)
t_x_1924                                            1 	(obj:30)
t_x_1932                                            1 	(obj:46)
t_x_1936                                            1 	(obj:14)
t_x_1939                                            1 	(obj:60)
t_x_1942                                            1 	(obj:12)
t_x_1943                                            1 	(obj:14)
t_x_1945                                            1 	(obj:12)
t_x_1946                                            1 	(obj:50)
t_x_1948                                            1 	(obj:18)
t_x_1950                                            1 	(obj:3)
t_x_1952                                            1 	(obj:2)
t_x_1953                                            1 	(obj:15)
t_x_1954                                            1 	(obj:18)
t_x_1959                                            1 	(obj:18)
t_x_1961                                            1 	(obj:2)
t_x_1962                                            1 	(obj:14)
t_x_1969                                            1 	(obj:2)
t_x_1974                                            1 	(obj:12)
t_x_1981                                            1 	(obj:35)
t_x_1983                                            1 	(obj:48)
t_x_1984                                            1 	(obj:1)
t_x_1991                                            1 	(obj:13)
t_x_1992                                            1 	(obj:3)
t_x_1997                                            1 	(obj:1)
t_x_1999                                            1 	(obj:51)
